************************************************************************
file with basedata            : cr149_.bas
initial value random generator: 1569182313
************************************************************************
projects                      :  1
jobs (incl. supersource/sink ):  18
horizon                       :  147
RESOURCES
  - renewable                 :  1   R
  - nonrenewable              :  2   N
  - doubly constrained        :  0   D
************************************************************************
PROJECT INFORMATION:
pronr.  #jobs rel.date duedate tardcost  MPM-Time
    1     16      0       25        3       25
************************************************************************
PRECEDENCE RELATIONS:
jobnr.    #modes  #successors   successors
   1        1          3           2   3   4
   2        3          3           5   7  14
   3        3          2           6  12
   4        3          3           7  11  15
   5        3          3           8   9  10
   6        3          2           7  14
   7        3          1           8
   8        3          2          16  17
   9        3          2          12  17
  10        3          3          13  15  17
  11        3          2          13  14
  12        3          2          13  15
  13        3          1          16
  14        3          1          16
  15        3          1          18
  16        3          1          18
  17        3          1          18
  18        1          0        
************************************************************************
REQUESTS/DURATIONS:
jobnr. mode duration  R 1  N 1  N 2
------------------------------------------------------------------------
  1      1     0       0    0    0
  2      1     4       0    8    8
         2     4       0    7   10
         3     7       0    4    7
  3      1     2       0    3    8
         2     4       8    3    6
         3     9       8    2    6
  4      1     6       2    6    4
         2     7       2    5    4
         3     9       2    4    4
  5      1     1       0    8    7
         2     3       0    7    4
         3     9       0    6    1
  6      1     5       1    2    7
         2     9       0    2    4
         3    10       0    1    4
  7      1     8       0    8    9
         2     9       0    5    4
         3    10       8    3    2
  8      1     5       6    7    3
         2     7       0    6    3
         3     9       2    4    3
  9      1     2      10    3    6
         2     3      10    2    5
         3    10       0    2    3
 10      1     4       7    9    9
         2     8       0    8    8
         3    10       5    6    5
 11      1     1       7    2   10
         2     7       0    1    6
         3    10       0    1    4
 12      1     4       8    9    9
         2     5       5    8    8
         3    10       5    6    8
 13      1     1       0    8    9
         2     6       5    7    7
         3     9       0    5    6
 14      1     1       8   10    2
         2     4       4   10    2
         3     9       3    9    2
 15      1     6       0    8    6
         2     9       0    7    6
         3    10       0    6    6
 16      1     2       0    4    7
         2     5       0    3    4
         3     6       0    3    1
 17      1     5       8   10    8
         2     9       6    5    8
         3    10       5    3    7
 18      1     0       0    0    0
************************************************************************
RESOURCEAVAILABILITIES:
  R 1  N 1  N 2
   10   95  103
************************************************************************
